s td 34 12 45
b 1 18 28
b 2 38 45
b 3 11 12 29
b 4 17 36 39
b 5 26 35 38
b 6 12 29 33
b 7 6 20 32
b 8 3 7 22 30
b 9 1 2 3 13 14 16 20 25 34 39 41 44
b 10 1 3 12 13 14 16 20 25 34 39 41 44
b 11 1 3 12 13 14 16 20 25 38 39 44
b 12 1 3 12 13 14 25 31 38 39 44
b 13 3 4 12 13 31 38
b 14 4 12 13 15 31
b 15 1 12 13 14 31 38 39 40 44
b 16 1 12 13 14 35 38 40
b 17 3 6 13 14 16 20 38 39 44
b 18 3 6 13 16 38 39 43 44
b 19 6 37 38 39 43
b 20 9 37 39 43
b 21 1 3 12 13 14 20 21 34 39 41 44
b 22 1 3 12 13 14 20 21 27 39 41
b 23 3 12 13 14 19 20 21 27 41
b 24 3 12 13 19 20 21 33 41
b 25 3 19 20 21 30 33 41
b 26 3 19 22 30 33 41
b 27 13 21 33 42
b 28 5 13 25 41
b 29 1 2 8 13 14 16 20 34 41
b 30 2 8 13 16 20 24 41
b 31 2 8 13 20 24 28
b 32 2 3 10 13 39 44
b 33 3 10 13 36 39
b 34 16 23 34 44
1 31
2 11
3 6
4 33
5 16
6 24
7 17
8 26
9 10
9 28
9 29
9 32
9 34
10 11
10 21
11 12
11 17
12 13
12 15
13 14
15 16
17 18
18 19
19 20
21 22
22 23
23 24
24 25
24 27
25 26
29 30
30 31
32 33
